4 
5  18 40 
6  05 25 44 58 
7  13 27 43 58 
8  13 28 43 58 
9  13 27 42 57 
10  12 27 42 57 
11  12 27 42 57 
12  12 27 42 57 
13  12 28 43 58 
14  13 28 43 58 
15  14 29 44 59 
16  14 29 44 59 
17  14 29 44 59 
18  14 29 44 59 
19  14 29 44 59 
20  14 29 45 59 
21  14 29 44 59 
22  14 31 45 
23  01 25 
0 
